NAME : burma14.tour
COMMENT : Optimum tour for burma14.tsp (Length 3323)
TYPE : TOUR
DIMENSION : 14
TOUR_SECTION  
<<<<<<< HEAD
7
13
8
11
9
10
=======
>>>>>>> 459f1de98503de78b75ad9fdfbb792c41e8a5d23
1
2
14
3
4
5
6
12
<<<<<<< HEAD
=======
7
13
8
11
9
10
>>>>>>> 459f1de98503de78b75ad9fdfbb792c41e8a5d23
-1
EOF